proyfinal/src/viki/013/experimentInOfficeAgust.take6.output/b22d56cb-396c-4cf2-be73-216831cf14dc.als.dat
{'cnf.clauses': '118081',
 'cnf.totvars': '69608',
 'conflict literals': '34',
 'conflicts': '14',
 'decisions': '8668',
 'memused.mb': '17.50',
 'outcome': 'UNSAT',
 'propagations': '38338',
 'restarts': '1',
 'solver.msecs': 31,
 'task.msecs': 244}
