proyfinal/src/viki/013/experimentInOfficeAgust.take6.output/b22d56cb-396c-4cf2-be73-216831cf14dc.als.out
Reading from standard input... Use '--help' for help.
============================[ Problem Statistics ]=============================
|                                                                             |
|  Number of variables:         69608                                         |
|  Number of clauses:          118081                                         |
|  Parse time:                   0.02 s                                       |
|                                                                             |
============================[ Search Statistics ]==============================
| Conflicts |          ORIGINAL         |          LEARNT          | Progress |
|           |    Vars  Clauses Literals |    Limit  Clauses Lit/Cl |          |
===============================================================================
===============================================================================
restarts              : 1
conflicts             : 14             (440 /sec)
decisions             : 8668           (0.00 % random) (272193 /sec)
propagations          : 38338          (1203894 /sec)
conflict literals     : 34             (0.00 % deleted)
Memory used           : 17.50 MB
CPU time              : 0.031845 s

UNSATISFIABLE
